unsat
(forall ((A (_ BitVec 21))
         (B (_ BitVec 21))
         (C (_ BitVec 1))
         (D (_ BitVec 21))
         (E (_ BitVec 21))
         (F (_ BitVec 21))
         (G (_ BitVec 1))
         (H (_ BitVec 1))
         (I (_ BitVec 40))
         (J (_ BitVec 21))
         (K (_ BitVec 21))
         (L (_ BitVec 1))
         (M (_ BitVec 14))
         (N (_ BitVec 21))
         (O (_ BitVec 21))
         (P (_ BitVec 14))
         (Q (_ BitVec 21))
         (R (_ BitVec 14))
         (S (_ BitVec 14))
         (T (_ BitVec 21))
         (U (_ BitVec 21))
         (V (_ BitVec 21))
         (W (_ BitVec 35))
         (X (_ BitVec 9))
         (Y (_ BitVec 40))
         (Z (_ BitVec 1))
         (A1 (_ BitVec 21))
         (B1 (_ BitVec 1))
         (C1 (_ BitVec 14))
         (D1 (_ BitVec 1))
         (E1 (_ BitVec 21))
         (F1 (_ BitVec 26))
         (G1 (_ BitVec 21))
         (H1 (_ BitVec 1))
         (I1 (_ BitVec 21))
         (J1 (_ BitVec 1))
         (K1 (_ BitVec 21))
         (L1 (_ BitVec 21))
         (M1 (_ BitVec 21))
         (N1 (_ BitVec 1))
         (O1 (_ BitVec 14))
         (P1 (_ BitVec 21))
         (Q1 (_ BitVec 21))
         (R1 (_ BitVec 21))
         (S1 (_ BitVec 21))
         (T1 (_ BitVec 21))
         (U1 (_ BitVec 21))
         (V1 (_ BitVec 35))
         (W1 (_ BitVec 1))
         (X1 (_ BitVec 35))
         (Y1 (_ BitVec 1))
         (Z1 (_ BitVec 40))
         (A2 (_ BitVec 21))
         (B2 (_ BitVec 21))
         (C2 (_ BitVec 21))
         (D2 (_ BitVec 14))
         (E2 (_ BitVec 10))
         (F2 (_ BitVec 23))
         (G2 (_ BitVec 10))
         (H2 (_ BitVec 23))
         (I2 (_ BitVec 23))
         (J2 (_ BitVec 23))
         (K2 (_ BitVec 1))
         (L2 (_ BitVec 1))
         (M2 (_ BitVec 21))
         (N2 (_ BitVec 13))
         (O2 (_ BitVec 13))
         (P2 (_ BitVec 24))
         (Q2 (_ BitVec 24))
         (R2 (_ BitVec 14))
         (S2 (_ BitVec 24))
         (T2 (_ BitVec 1))
         (U2 (_ BitVec 40))
         (V2 (_ BitVec 24))
         (W2 (_ BitVec 1)))
  (! (let ((a!1 (or (not ((_ bit2bool 20) I))
                    (not ((_ bit2bool 0) U1))
                    (not ((_ bit2bool 0) I))
                    (not (= ((_ extract 0 0) R1) #b1))))
           (a!2 (or ((_ bit2bool 2) F1)
                    ((_ bit2bool 15) F1)
                    (not ((_ bit2bool 14) F1))
                    ((_ bit2bool 2) D2)
                    (not ((_ bit2bool 1) F1))
                    (not (= ((_ extract 0 0) S1) #b1))))
           (a!3 (or (not (= ((_ extract 0 0) E1) #b1))
                    (= ((_ extract 0 0) A2) #b1)))
           (a!4 (or ((_ bit2bool 0) K1) (not (= ((_ extract 0 0) R1) #b1))))
           (a!5 (or ((_ bit2bool 0) F1)
                    ((_ bit2bool 1) F1)
                    (not ((_ bit2bool 15) F1))
                    (not ((_ bit2bool 2) F1))
                    (not (= ((_ extract 0 0) R1) #b1))
                    (not ((_ bit2bool 2) D2))))
           (a!6 ((_ extract 5 2)
                  (bvadd (concat #b0 J2) (concat #b000 ((_ extract 22 2) I2)))))
           (a!8 (concat ((_ extract 3 2)
                          (bvadd (concat #x00 F2) ((_ extract 34 4) V1)))
                        (bvadd ((_ extract 5 4) V1) ((_ extract 1 0) F2))
                        ((_ extract 3 0) V1)))
           (a!9 (= (concat (bvadd ((_ extract 7 6) W) ((_ extract 1 0) H2))
                           ((_ extract 5 0) W))
                   ((_ extract 7 0) R))))
     (let ((a!7 (= (concat a!6
                           (bvadd ((_ extract 1 0) J2) ((_ extract 3 2) I2))
                           ((_ extract 1 0) I2))
                   ((_ extract 7 0) S))))
     (let ((a!10 (and (or (= ((_ extract 7 0) X1) ((_ extract 7 0) P))
                          (not (= T1 #b000000000000000000001)))
                      (not ((_ bit2bool 8) A2))
                      (not ((_ bit2bool 1) G2))
                      (not ((_ bit2bool 0) G2))
                      (or (not (= W1 #b0)) (not (= H #b1)))
                      (not ((_ bit2bool 3) E2))
                      (or (= Z #b0) (not (= H1 #b1)) (= W1 #b0))
                      (not ((_ bit2bool 0) E2))
                      (not ((_ bit2bool 1) E2))
                      a!1
                      (not ((_ bit2bool 2) E2))
                      a!2
                      a!3
                      a!4
                      a!5
                      (or (not (= E1 #b000000000000000000001)) a!7)
                      (or (not ((_ bit2bool 0) K2)) (not (= N1 #b0)))
                      (or (not (= R1 #b000000000000000000001))
                          (= a!8 ((_ extract 7 0) C1)))
                      (or a!9 (not (= S1 #b000000000000000000001))))))
       (= (INV!slice!1 A
                       B
                       C
                       D
                       E
                       F
                       G
                       H
                       I
                       J
                       K
                       L
                       M
                       N
                       O
                       P
                       Q
                       R
                       S
                       T
                       U
                       V
                       W
                       X
                       Y
                       Z
                       A1
                       B1
                       C1
                       D1
                       E1
                       F1
                       G1
                       H1
                       I1
                       J1
                       K1
                       L1
                       M1
                       N1
                       O1
                       P1
                       Q1
                       R1
                       S1
                       T1
                       U1
                       V1
                       W1
                       X1
                       Y1
                       Z1
                       A2
                       B2
                       C2
                       D2
                       E2
                       F2
                       G2
                       H2
                       I2
                       J2
                       K2
                       L2
                       M2
                       N2
                       O2
                       P2
                       Q2
                       R2
                       S2
                       T2
                       U2
                       V2
                       W2)
          a!10))))
     :weight 0))
